          10
          10
           1           7           3
           2           7           3
           3           2           8
           4           2           8
           5           2          10
           6           4           5
           7           4           5
           8           4           5
           9           9           2
          10           9           2
